p cnf 130 160
5 28 41 51 0
5 28 41 -51 0
5 -28 41 52 0
5 -28 41 -52 0
10 30 -41 53 0
10 30 -41 -53 0
5 -10 -41 54 0
5 -10 -41 -54 0
-5 25 30 55 0
-5 25 30 -55 0
-5 -25 30 56 0
-5 -25 30 -56 0
11 -30 -33 57 0
11 -30 -33 -57 0
-11 -30 -33 58 0
-11 -30 -33 -58 0
7 -30 33 59 0
7 -30 33 -59 0
-7 14 33 60 0
-7 14 33 -60 0
-4 -7 -14 61 0
-4 -7 -14 -61 0
4 -14 -29 62 0
4 -14 -29 -62 0
-1 -14 32 63 0
-1 -14 32 -63 0
-1 4 -32 64 0
-1 4 -32 -64 0
1 24 29 65 0
1 24 29 -65 0
1 -24 -34 66 0
1 -24 -34 -66 0
-6 -24 34 67 0
-6 -24 34 -67 0
6 -24 38 68 0
6 -24 38 -68 0
6 -32 -38 69 0
6 -32 -38 -69 0
32 44 48 70 0
32 44 48 -70 0
-38 -44 48 71 0
-38 -44 48 -71 0
22 29 -48 72 0
22 29 -48 -72 0
22 -29 32 73 0
22 -29 32 -73 0
-22 -25 -48 74 0
-22 -25 -48 -74 0
-22 25 40 75 0
-22 25 40 -75 0
18 -22 -40 76 0
18 -22 -40 -76 0
-18 20 -40 77 0
-18 20 -40 -77 0
-18 28 -40 78 0
-18 28 -40 -78 0
-18 -28 39 79 0
-18 -28 39 -79 0
-28 35 -39 80 0
-28 35 -39 -80 0
-35 -39 43 81 0
-35 -39 43 -81 0
-35 -43 -50 82 0
-35 -43 -50 -82 0
-43 -45 50 83 0
-43 -45 50 -83 0
31 45 50 84 0
31 45 50 -84 0
-31 -44 45 85 0
-31 -44 45 -85 0
-15 44 49 86 0
-15 44 49 -86 0
-15 -31 -49 87 0
-15 -31 -49 -87 0
15 -31 36 88 0
15 -31 36 -88 0
15 23 -36 89 0
15 23 -36 -89 0
-23 -36 46 90 0
-23 -36 46 -90 0
20 27 -46 91 0
20 27 -46 -91 0
-20 -23 27 92 0
-20 -23 27 -92 0
-16 -27 -46 93 0
-16 -27 -46 -93 0
16 26 -27 94 0
16 26 -27 -94 0
16 17 -26 95 0
16 17 -26 -95 0
2 13 -17 96 0
2 13 -17 -96 0
2 -13 -26 97 0
2 -13 -26 -97 0
-5 -17 -26 98 0
-5 -17 -26 -98 0
-2 -17 42 99 0
-2 -17 42 -99 0
-2 12 -13 100 0
-2 12 -13 -100 0
-2 -12 -42 101 0
-2 -12 -42 -101 0
8 13 -42 102 0
8 13 -42 -102 0
-8 -10 13 103 0
-8 -10 13 -103 0
3 -8 10 104 0
3 -8 10 -104 0
-3 10 -37 105 0
-3 10 -37 -105 0
-3 10 -47 106 0
-3 10 -47 -106 0
10 19 47 107 0
10 19 47 -107 0
-12 -19 47 108 0
-12 -19 47 -108 0
12 -19 21 109 0
12 -19 21 -109 0
9 -19 -21 110 0
9 -19 -21 -110 0
-9 -11 -21 111 0
-9 -11 -21 -111 0
-9 11 -49 112 0
-9 11 -49 -112 0
11 41 49 113 0
11 41 49 -113 0
19 -32 37 114 0
19 -32 37 -114 0
-1 39 -50 115 0
-1 39 -50 -115 0
8 17 40 116 0
8 17 40 -116 0
38 43 49 117 0
38 43 49 -117 0
23 42 -47 118 0
23 42 -47 -118 0
-13 -29 37 119 0
-13 -29 37 -119 0
-34 37 -47 120 0
-34 37 -47 -120 0
-33 -37 50 121 0
-33 -37 50 -121 0
-6 14 34 122 0
-6 14 34 -122 0
9 -20 -50 123 0
9 -20 -50 -123 0
35 36 38 124 0
35 36 38 -124 0
3 31 46 125 0
3 31 46 -125 0
7 -16 21 126 0
7 -16 21 -126 0
-6 17 26 127 0
-6 17 26 -127 0
23 24 46 128 0
23 24 46 -128 0
18 24 -45 129 0
18 24 -45 -129 0
-4 -6 7 130 0
-4 -6 7 -130 0

